DATASET = "thpack2";
INSTANCE = "083";

WIDTH = 233;
HEIGHT = 220;
LENGTH = 587;

NO_OF_SHAPES = 5;
size = [|
  83,71,46 |
  76,63,54 |
  91,56,40 |
  61,42,34 |
  84,67,47 |
|];

verticality = [|
  1,1,1 |
  1,1,1 |
  0,1,1 |
  1,1,1 |
  1,1,1 |
|];

box_count = [
  30,
  27,
  28,
  25,
  26,
];
